SAT
84 28 99 -23 -73 -83 -26 -9 12 -38 -27 68 -2 34 51 -46 49 -62 -96 71 97 35 -18 -93 42 -60 -30 -44 -79 74 -48 -41 -40 22 -65 13 -1 -87 -25 -36 -52 -75 -85 31 10 67 20 -70 32 -98 -21 -19 15 63 -86 -64 89 -78 29 72 -76 57 -55 94 95 100 17 -6 -61 -33 54 -66 -4 -14 37 -8 39 -45 -90 -11 -43 77 -80 69 82 -53 47 -50 81 -92 -5 -58 -59 24 -56 -88 16 91 3 -7 0
